NAME : in_house_8_16
TYPE : TSP
DIMENSION : 8
EDGE_WEIGHT_TYPE : EXPLICIT
EDGE_WEIGHT_FORMAT : UPPER_ROW
COMMENT : INVERSION_SHIFT=1
EDGE_WEIGHT_SECTION
36
32
46
20
39
22
21
39
62
62
14
12
36
41
32
28
22
36
55
4
38
15
64
8
7
41
7
6
